[[8, 35, 54, 19, 14, 59, 53, 11, 66, 65, 38, 10, 58, 72, 39, 9, 31, 25, 55, 18, 50, 32, 3, 44, 40, 12, 17, 51, 6, 68, 73, 33, 63, 16, 24, 49], [23, 56, 41, 43, 42, 64, 22, 61, 62, 28, 2, 74, 30, 48, 5, 21, 47, 36, 69, 71, 60, 70, 20, 37, 15, 57, 29, 45, 27, 13, 52, 34, 4, 75, 76, 26, 67, 46, 7]]